Week_2_Practice_Problem/Army_transportation.sol
# Solution for model basic_model
# Objective value = 32950
Camp_1_Base_1 0
Camp_1_Base_2 200
Camp_1_Base_3 0
Camp_1_Base_4 300
Camp_2_Base_1 0
Camp_2_Base_2 0
Camp_2_Base_3 350
Camp_2_Base_4 0
Camp_3_Base_1 200
Camp_3_Base_2 50
Camp_3_Base_3 0
Camp_3_Base_4 0
